\ Generated by MPModelProtoExporter
\   Name             : 
\   Format           : Free
\   Constraints      : 14
\   Variables        : 17
\     Binary         : 12
\     Integer        : 5
\     Continuous     : 0
Maximize
 Obj: +1 totalScore 
Subject to
 scoreDef: -1 totalScore +1 score_app_MPOProgram +1 score_app_MPOProgram2  = 0
 stateDef_appMPOProgram: -1 state_app_MPOProgram +2 app_MPOProgram_is_not_running +1 app_MPOProgram_on_PLCA2  = 0
 scoreDef_app_MPOProgram: -1 score_app_MPOProgram +4 app_MPOProgram_on_PLCA2 +6 app_MPOProgram_on_PLCC1  = 0
 attributionConstraint_app_MPOProgram: +1 app_MPOProgram_is_not_running +1 app_MPOProgram_on_PLCA2 +1 app_MPOProgram_on_PLCC1  = 1
 app_MPOProgram_in__only_one_zone_rhs: +1 app_MPOProgram_in_zone_A +1 app_MPOProgram_in_zone_C +1 app_MPOProgram_in_zone_AtoC  <= 1
 app_MPOProgram_in__only_one_zone_lhs: +1 app_MPOProgram_in_zone_A +1 app_MPOProgram_in_zone_C +1 app_MPOProgram_in_zone_AtoC  >= 0
 app_MPOProgram_in_zone_Aif_on_device_PLCA2: -1 app_MPOProgram_in_zone_A +1 app_MPOProgram_on_PLCA2  = 0
 app_MPOProgram_in_zone_Cif_on_device_PLCC1: -1 app_MPOProgram_in_zone_C +1 app_MPOProgram_on_PLCC1  = 0
 stateDef_appMPOProgram2: -1 state_app_MPOProgram2 +2 app_MPOProgram2_is_not_running  = 0
 scoreDef_app_MPOProgram2: -1 score_app_MPOProgram2 +6 app_MPOProgram2_on_PLCA2 +6 app_MPOProgram2_on_PLCC1  = 0
 attributionConstraint_app_MPOProgram2: +1 app_MPOProgram2_is_not_running +1 app_MPOProgram2_on_PLCA2 +1 app_MPOProgram2_on_PLCC1  = 1
 app_MPOProgram2_in__only_one_zone_rhs: +1 app_MPOProgram2_in_zone_A +1 app_MPOProgram2_in_zone_C +1 app_MPOProgram2_in_zone_AtoC  <= 1
 app_MPOProgram2_in__only_one_zone_lhs: +1 app_MPOProgram2_in_zone_A +1 app_MPOProgram2_in_zone_C +1 app_MPOProgram2_in_zone_AtoC  >= 0
 app_MPOProgram2_in_zone_Aif_on_device_PLCA2: -1 app_MPOProgram2_in_zone_A +1 app_MPOProgram2_on_PLCA2  = 0
 app_MPOProgram2_in_zone_Cif_on_device_PLCC1: -1 app_MPOProgram2_in_zone_C +1 app_MPOProgram2_on_PLCC1  = 0
 capacityConstraint_PLCC1_rhs: +33 app_MPOProgram_on_PLCC1 +33 app_MPOProgram2_on_PLCC1  <= 100
 capacityConstraint_PLCC1_lhs: +33 app_MPOProgram_on_PLCC1 +33 app_MPOProgram2_on_PLCC1  >= 0
Bounds
 0 <= totalScore <= inf
 0 <= state_app_MPOProgram <= 2
 0 <= score_app_MPOProgram <= inf
 0 <= app_MPOProgram_is_not_running <= 1
 0 <= app_MPOProgram_in_zone_A <= 1
 0 <= app_MPOProgram_in_zone_C <= 1
 0 <= app_MPOProgram_in_zone_AtoC <= 1
 0 <= app_MPOProgram_on_PLCA2 <= 1
 0 <= app_MPOProgram_on_PLCC1 <= 1
 0 <= state_app_MPOProgram2 <= 2
 0 <= score_app_MPOProgram2 <= inf
 0 <= app_MPOProgram2_is_not_running <= 1
 0 <= app_MPOProgram2_in_zone_A <= 1
 0 <= app_MPOProgram2_in_zone_C <= 1
 0 <= app_MPOProgram2_in_zone_AtoC <= 1
 0 <= app_MPOProgram2_on_PLCA2 <= 1
 0 <= app_MPOProgram2_on_PLCC1 <= 1
Binaries
 app_MPOProgram_is_not_running
 app_MPOProgram_in_zone_A
 app_MPOProgram_in_zone_C
 app_MPOProgram_in_zone_AtoC
 app_MPOProgram_on_PLCA2
 app_MPOProgram_on_PLCC1
 app_MPOProgram2_is_not_running
 app_MPOProgram2_in_zone_A
 app_MPOProgram2_in_zone_C
 app_MPOProgram2_in_zone_AtoC
 app_MPOProgram2_on_PLCA2
 app_MPOProgram2_on_PLCC1
Generals
 totalScore
 state_app_MPOProgram
 score_app_MPOProgram
 state_app_MPOProgram2
 score_app_MPOProgram2
End
